certificates/rado_a14_c74_N39.cnf
c Rad2 upper bound instance: x1 + 14*x2 - x3 = 74, interval [1,39]
p cnf 39 216
1 6 11 0
-1 -6 -11 0
1 7 25 0
-1 -7 -25 0
1 8 39 0
-1 -8 -39 0
2 6 12 0
-2 -6 -12 0
2 7 26 0
-2 -7 -26 0
3 6 13 0
-3 -6 -13 0
3 7 27 0
-3 -7 -27 0
4 6 14 0
-4 -6 -14 0
4 7 28 0
-4 -7 -28 0
1 5 0
-1 -5 0
5 6 15 0
-5 -6 -15 0
5 7 29 0
-5 -7 -29 0
2 5 6 0
-2 -5 -6 0
6 16 0
-6 -16 0
6 7 30 0
-6 -7 -30 0
3 5 7 0
-3 -5 -7 0
6 7 17 0
-6 -7 -17 0
7 31 0
-7 -31 0
4 5 8 0
-4 -5 -8 0
6 8 18 0
-6 -8 -18 0
7 8 32 0
-7 -8 -32 0
5 9 0
-5 -9 0
6 9 19 0
-6 -9 -19 0
7 9 33 0
-7 -9 -33 0
5 6 10 0
-5 -6 -10 0
6 10 20 0
-6 -10 -20 0
7 10 34 0
-7 -10 -34 0
5 7 11 0
-5 -7 -11 0
6 11 21 0
-6 -11 -21 0
7 11 35 0
-7 -11 -35 0
5 8 12 0
-5 -8 -12 0
6 12 22 0
-6 -12 -22 0
7 12 36 0
-7 -12 -36 0
5 9 13 0
-5 -9 -13 0
6 13 23 0
-6 -13 -23 0
7 13 37 0
-7 -13 -37 0
5 10 14 0
-5 -10 -14 0
6 14 24 0
-6 -14 -24 0
7 14 38 0
-7 -14 -38 0
5 11 15 0
-5 -11 -15 0
6 15 25 0
-6 -15 -25 0
7 15 39 0
-7 -15 -39 0
5 12 16 0
-5 -12 -16 0
6 16 26 0
-6 -16 -26 0
5 13 17 0
-5 -13 -17 0
6 17 27 0
-6 -17 -27 0
5 14 18 0
-5 -14 -18 0
6 18 28 0
-6 -18 -28 0
1 4 19 0
-1 -4 -19 0
5 15 19 0
-5 -15 -19 0
6 19 29 0
-6 -19 -29 0
2 4 20 0
-2 -4 -20 0
5 16 20 0
-5 -16 -20 0
6 20 30 0
-6 -20 -30 0
3 4 21 0
-3 -4 -21 0
5 17 21 0
-5 -17 -21 0
6 21 31 0
-6 -21 -31 0
4 22 0
-4 -22 0
5 18 22 0
-5 -18 -22 0
6 22 32 0
-6 -22 -32 0
4 5 23 0
-4 -5 -23 0
5 19 23 0
-5 -19 -23 0
6 23 33 0
-6 -23 -33 0
4 6 24 0
-4 -6 -24 0
5 20 24 0
-5 -20 -24 0
6 24 34 0
-6 -24 -34 0
4 7 25 0
-4 -7 -25 0
5 21 25 0
-5 -21 -25 0
6 25 35 0
-6 -25 -35 0
4 8 26 0
-4 -8 -26 0
5 22 26 0
-5 -22 -26 0
6 26 36 0
-6 -26 -36 0
4 9 27 0
-4 -9 -27 0
5 23 27 0
-5 -23 -27 0
6 27 37 0
-6 -27 -37 0
4 10 28 0
-4 -10 -28 0
5 24 28 0
-5 -24 -28 0
6 28 38 0
-6 -28 -38 0
4 11 29 0
-4 -11 -29 0
5 25 29 0
-5 -25 -29 0
6 29 39 0
-6 -29 -39 0
4 12 30 0
-4 -12 -30 0
5 26 30 0
-5 -26 -30 0
4 13 31 0
-4 -13 -31 0
5 27 31 0
-5 -27 -31 0
4 14 32 0
-4 -14 -32 0
5 28 32 0
-5 -28 -32 0
1 3 33 0
-1 -3 -33 0
4 15 33 0
-4 -15 -33 0
5 29 33 0
-5 -29 -33 0
2 3 34 0
-2 -3 -34 0
4 16 34 0
-4 -16 -34 0
5 30 34 0
-5 -30 -34 0
3 35 0
-3 -35 0
4 17 35 0
-4 -17 -35 0
5 31 35 0
-5 -31 -35 0
3 4 36 0
-3 -4 -36 0
4 18 36 0
-4 -18 -36 0
5 32 36 0
-5 -32 -36 0
3 5 37 0
-3 -5 -37 0
4 19 37 0
-4 -19 -37 0
5 33 37 0
-5 -33 -37 0
3 6 38 0
-3 -6 -38 0
4 20 38 0
-4 -20 -38 0
5 34 38 0
-5 -34 -38 0
3 7 39 0
-3 -7 -39 0
4 21 39 0
-4 -21 -39 0
5 35 39 0
-5 -35 -39 0
