certificates/rado_a14_c74_N39.drat
-35 -39 0
5 -39 0
-3 -39 0
d -7 -3 -39 0
-39 0
7 0
-31 0
-5 0
1 0
9 0
35 0
27 0
-25 0
-33 0
-3 0
-11 0
-4 0
29 0
21 0
37 0
15 0
8 0
22 0
23 0
13 0
36 0
0
